id,conversation_id,created_at,date,time,timezone,user_id,username,name,place,tweet,language,mentions,urls,photos,replies_count,retweets_count,likes_count,hashtags,cashtags,link,retweet,quote_url,video,thumbnail,near,geo,source,user_rt_id,user_rt,retweet_id,reply_to,retweet_date,translate,trans_src,trans_dest
1238612298484367360,1238612298484367360,2020-03-13 18:45:58 CDT,2020-03-13,18:45:58,-0500,452283614,estherrawson,Kristy Rawson,,"Getting outside this weekend, that‚Äôs my plan. Coronavirus is not blowing off the lake or jumping 2 feet from the soggy ground to assault my well-scrubbed hands.",en,[],[],[],0,0,2,[],[],https://twitter.com/EstherRawson/status/1238612298484367360,False,,0,,chicago,,,,,,[],,,,
1238611483484983298,1238611481949863944,2020-03-13 18:42:44 CDT,2020-03-13,18:42:44,-0500,342121990,kings_memoirs,Rodney Perry - Create w/ Life as King,,If a 1 million people contract a disease at once no country has the infrastructure to handle that influx so that then makes a treatable disease deadly because you can‚Äôt be tended to...,en,[],[],[],1,0,1,[],[],https://twitter.com/kings_memoirs/status/1238611483484983298,False,,0,,chicago,,,,,,[],,,,
1238608719124062208,1238608719124062208,2020-03-13 18:31:45 CDT,2020-03-13,18:31:45,-0500,1394938777,westlooptom,WestLoopTom,,Kids also tend to learn more when they‚Äôre not dead.,en,[],[],[],0,0,12,[],[],https://twitter.com/WestLoopTom/status/1238608719124062208,False,https://twitter.com/rosario_wolters/status/1238574262706999301,0,,chicago,,,,,,[],,,,
1238608353900859396,1238608353900859396,2020-03-13 18:30:18 CDT,2020-03-13,18:30:18,-0500,713967182451982337,seraphcollett,Michael Collett,"{'type': 'Point', 'coordinates': [41.883222, -87.632496]}","Beating that horse to death here. But that's the way it is. @ Chicago, Illinois  https://t.co/sbYMdd8P9C",en,[],['https://www.instagram.com/p/B9sTukHlcJS/?igshid=1c5okf8g9iply'],[],0,0,0,[],[],https://twitter.com/SeraphCollett/status/1238608353900859396,False,,0,,chicago,,,,,,[],,,,
1238607883329318913,1238607883329318913,2020-03-13 18:28:26 CDT,2020-03-13,18:28:26,-0500,22874123,heatherkenny,Heather Kenny,,Having asthma sure makes for a fun see saw of constant anxiety. The state of my throat/upper chest can change hourly. Weird allergen in the air? Fighting off a regular cold? Mild irritation?Death virus? WHO KNOWS,en,[],[],[],0,0,0,[],[],https://twitter.com/heatherkenny/status/1238607883329318913,False,,0,,chicago,,,,,,[],,,,
1238607258046660609,1238607258046660609,2020-03-13 18:25:57 CDT,2020-03-13,18:25:57,-0500,118108910,dalelazarov,Dale Lazarov @ NO MORE CONS :: waves hand ::,,It‚Äôs so dead in my area of Chicago I keep expecting to see Charlton Heston walking around with a shotgun.,en,[],[],[],0,0,6,[],[],https://twitter.com/dalelazarov/status/1238607258046660609,False,,0,,chicago,,,,,,[],,,,
1238606232354803712,1238606232354803712,2020-03-13 18:21:52 CDT,2020-03-13,18:21:52,-0500,3314741198,danalove__,Dana Love,,My schedule be so last minute I never get to kick it w anyone..,en,[],[],[],0,0,0,[],[],https://twitter.com/danalove__/status/1238606232354803712,False,,0,,chicago,,,,,,[],,,,
1238606216554844166,1238596936225218560,2020-03-13 18:21:48 CDT,2020-03-13,18:21:48,-0500,1465922246,babyanastasia70,üéÄ,,@_jovannaa_ I‚Äôm dead that‚Äôs exactly us ü§£,en,[],[],[],1,1,1,[],[],https://twitter.com/babyanastasia70/status/1238606216554844166,False,,0,,chicago,,,,,,[],,,,
1238604347967246336,1238581433297403909,2020-03-13 18:14:23 CDT,2020-03-13,18:14:23,-0500,24493516,scvball,Sean Carlson,,"@JumboElliott76 Bobo, bozo, and pennywise take offense to that...",en,[],[],[],0,0,1,[],[],https://twitter.com/scvball/status/1238604347967246336,False,,0,,chicago,,,,,,"[{'screen_name': 'JumboElliott76', 'name': 'Jumbo Elliott', 'id': '3442699455'}]",,,,
1238603414524870658,1238599616582606848,2020-03-13 18:10:40 CDT,2020-03-13,18:10:40,-0500,2369449952,profhalloran,John Halloran,,@Vote_For_Aaron @yahhello1 @secretmoderator I‚Äôm growing a quarantine beard. So if you hear me quoting Ludwig Von Mises or talking about opportunity zones make sure to kick me in the nads.,en,[],[],[],2,1,6,[],[],https://twitter.com/ProfHalloran/status/1238603414524870658,False,,0,,chicago,,,,,,"[{'screen_name': 'yahhello1', 'name': 'Bog Mummy, Take the Wheel', 'id': '358945297'}, {'screen_name': 'secretmoderator', 'name': 'wizden', 'id': '571636719'}]",,,,
1238603292206338049,1238603292206338049,2020-03-13 18:10:11 CDT,2020-03-13,18:10:11,-0500,3314741198,danalove__,Dana Love,,The city is so dead how am I off work at 6...,en,[],[],[],1,0,2,[],[],https://twitter.com/danalove__/status/1238603292206338049,False,,0,,chicago,,,,,,[],,,,
1238601531299188740,1238601531299188740,2020-03-13 18:03:11 CDT,2020-03-13,18:03:11,-0500,16725088,caroleenw,Caroleen Wheeland,,Still mourning #MarchMadness cancelled.  Just pour salt in the wound now...#mubb #imisscbb  https://t.co/8bIJ2vQLpm,en,[],[],['https://pbs.twimg.com/media/ETBlhnrXgAIHtPC.jpg'],0,0,2,"['marchmadness', 'mubb', 'imisscbb']",[],https://twitter.com/CaroleenW/status/1238601531299188740,False,,1,https://pbs.twimg.com/media/ETBlhnrXgAIHtPC.jpg,chicago,,,,,,[],,,,
1238601138821365762,1238601138821365762,2020-03-13 18:01:38 CDT,2020-03-13,18:01:38,-0500,26174781,terry_mfn_roxx,Terryroxx,,‚ÄúIf I‚Äôm dead you guys have been dead for weeks‚Äù - Dwight k shrute.,en,[],[],[],0,0,1,[],[],https://twitter.com/Terry_mfn_Roxx/status/1238601138821365762,False,,0,,chicago,,,,,,[],,,,
1238600416423796738,1238595562305458177,2020-03-13 17:58:46 CDT,2020-03-13,17:58:46,-0500,23409992,blacksamroth,Wave Winfield,,"@stayhumble @fakeshoredrive ""Death Parade"" and ""Peru""...",en,[],[],[],2,0,2,[],[],https://twitter.com/BlackSamRoth/status/1238600416423796738,False,,0,,chicago,,,,,,"[{'screen_name': 'stayhumble', 'name': 'PEACE', 'id': '21777118'}, {'screen_name': 'fakeshoredrive', 'name': 'Andrew Barber', 'id': '16302129'}]",,,,
1238599264269459460,1238599264269459460,2020-03-13 17:54:11 CDT,2020-03-13,17:54:11,-0500,1041838932600729600,rayybvndz,üì¥,,@CAU so UM I‚Äôm tryna figure out when y‚Äôall issuing them refunds since y‚Äôall so ready to kick mfs out,en,[],[],[],0,0,0,[],[],https://twitter.com/rayybvndz/status/1238599264269459460,False,,0,,chicago,,,,,,[],,,,
1238596821821337600,1238571232557174786,2020-03-13 17:44:28 CDT,2020-03-13,17:44:28,-0500,72311364,chilira,Rocky Bandit,,@SethAbramson Won‚Äôt give test. DNA evidence for rape cases (yes plural).,en,[],[],[],0,0,0,[],[],https://twitter.com/chilira/status/1238596821821337600,False,,0,,chicago,,,,,,"[{'screen_name': 'SethAbramson', 'name': 'Seth Abramson', 'id': '3223426134'}]",,,,
1238596160585117697,1238596160585117697,2020-03-13 17:41:51 CDT,2020-03-13,17:41:51,-0500,144731337,camtheking,Cam ‚ú∂ ‚ú∂ ‚ú∂ ‚ú∂ üá∫üá∏,,All st pattys day plans are dead and all events in the coty for the next month are cancelled   But at least my work is only making me come in every 3rd business day  https://t.co/vAejLKmJVa,en,[],[],['https://pbs.twimg.com/tweet_video_thumb/ETBgo59WsAAY7QU.jpg'],0,0,2,[],[],https://twitter.com/CamTheKing/status/1238596160585117697,False,,1,https://pbs.twimg.com/tweet_video_thumb/ETBgo59WsAAY7QU.jpg,chicago,,,,,,[],,,,
1238595698385457154,1238561414320730113,2020-03-13 17:40:01 CDT,2020-03-13,17:40:01,-0500,2502717631,frankbednarz,Frank Bednarz üá∫üá∏ üá∫üá¶,,"@MegC_An @GoldenbergLaw The attorneys call each other ""brother"" and ""sister"" too. Like church, but usually more passive-aggressive.",en,[],[],[],1,0,3,[],[],https://twitter.com/FrankBednarz/status/1238595698385457154,False,,0,,chicago,,,,,,"[{'screen_name': 'MegC_An', 'name': 'Megan Andrews', 'id': '1239474540'}, {'screen_name': 'GoldenbergLaw', 'name': 'Keren Goldenberg', 'id': '3639914605'}]",,,,
1238594050686681090,1238594050686681090,2020-03-13 17:33:28 CDT,2020-03-13,17:33:28,-0500,24958798,mrvinceanz,Vincent Anzalone Realtor Group,,I hear it was a roundhouse kick.  https://t.co/ezrpfB7s0K,en,[],[],['https://pbs.twimg.com/media/ETBeuUKWsAkWRCn.jpg'],0,0,0,[],[],https://twitter.com/MrVinceAnz/status/1238594050686681090,False,,1,https://pbs.twimg.com/media/ETBeuUKWsAkWRCn.jpg,chicago,,,,,,[],,,,
1238590997686337536,1238590997686337536,2020-03-13 17:21:20 CDT,2020-03-13,17:21:20,-0500,110331786,gjzielinski,Graeme Zielinski #14a,,How perfect is it that Trump made a press conference about a deadly virus into a display of racism?,en,[],[],[],1,0,0,[],[],https://twitter.com/gjzielinski/status/1238590997686337536,False,,0,,chicago,,,,,,[],,,,
1238586709492850690,1238586709492850690,2020-03-13 17:04:18 CDT,2020-03-13,17:04:18,-0500,373165202,molliequeer,Mollie May Brady,,Works gonna work me to death. But I need the money to survive. #CapitalismSucks,en,[],[],[],0,0,1,['capitalismsucks'],[],https://twitter.com/molliequeer/status/1238586709492850690,False,,0,,chicago,,,,,,[],,,,
1238580426182033409,1238234748121526272,2020-03-13 16:39:19 CDT,2020-03-13,16:39:19,-0500,2347553998,ienjoypainn,borderline personality disorder,,"@hamzaaslam97 we just want our loved ones safe from the threat. being cautious never hurt anybody but it‚Äôs all a joke or something religious to desi‚Äôs, which is frustrating.",en,[],[],[],1,0,0,[],[],https://twitter.com/ienjoypainn/status/1238580426182033409,False,,0,,chicago,,,,,,[],,,,
1238576072784056321,1238511886884274177,2020-03-13 16:22:02 CDT,2020-03-13,16:22:02,-0500,65759506,marcoherrera19,"Wake Me Up, When Winter Ends ü•∂",,@schrades_14 May the force be with you,en,[],[],[],0,0,1,[],[],https://twitter.com/MarcoHerrera19/status/1238576072784056321,False,,0,,chicago,,,,,,[],,,,
1238575299324973056,1238575299324973056,2020-03-13 16:18:57 CDT,2020-03-13,16:18:57,-0500,2350440798,irish_kreem,Ryan.ptsd,,They‚Äôre all dead,en,[],[],[],0,0,0,[],[],https://twitter.com/Irish_Kreem/status/1238575299324973056,False,https://twitter.com/AndrewKirell/status/1238563709297070087,0,,chicago,,,,,,[],,,,
1238574852543479808,1238574852543479808,2020-03-13 16:17:11 CDT,2020-03-13,16:17:11,-0500,285818513,wyojonny,W Y O J O N N Y,,no weapon formed against me üôÖüèæ‚Äç‚ôÇÔ∏è,en,[],[],[],0,0,0,[],[],https://twitter.com/wyojonny/status/1238574852543479808,False,,0,,chicago,,,,,,[],,,,
1238573730013548547,1238573730013548547,2020-03-13 16:12:43 CDT,2020-03-13,16:12:43,-0500,79019673,najhuger,Naj,,grocery store was in chaos ‚Äî then i‚Äôm heading back to my car all i hear are sirens and helicopters.   if this not giving me dawn of the dead ts ü•¥.,en,[],[],[],0,0,0,[],[],https://twitter.com/NajHuger/status/1238573730013548547,False,,0,,chicago,,,,,,[],,,,
1238572273629630465,1238572273629630465,2020-03-13 16:06:56 CDT,2020-03-13,16:06:56,-0500,18679810,theraindelay,theraindelay,,"I tell ya what, the guitar solos on ""You're Gonna Hate What You've Done"" by @deathbois-Greet Death- make me feel good inside",en,"[{'screen_name': 'deathbois', 'name': 'greet death', 'id': '2592687421'}]",[],[],0,0,3,[],[],https://twitter.com/TheRainDelay/status/1238572273629630465,False,,0,,chicago,,,,,,[],,,,
1238571252954083328,1238571252954083328,2020-03-13 16:02:52 CDT,2020-03-13,16:02:52,-0500,183874762,theonekingg,Alex Geelan,,BREAKING: Man dies of holding breath as to not breathe in deadly coronavirus.,en,[],[],[],1,0,1,[],[],https://twitter.com/TheOneKingG/status/1238571252954083328,False,,0,,chicago,,,,,,[],,,,
1238571131608739841,1238570692544737280,2020-03-13 16:02:23 CDT,2020-03-13,16:02:23,-0500,97613792,trilliamclinton,BIG COAT FOLKS,,@Terry_mfn_Roxx no im dead ass serious.,en,[],[],[],1,0,0,[],[],https://twitter.com/TrilliamClinton/status/1238571131608739841,False,,0,,chicago,,,,,,"[{'screen_name': 'Terry_mfn_Roxx', 'name': 'Terryroxx', 'id': '26174781'}]",,,,
1238570907511242759,1238524723283230721,2020-03-13 16:01:30 CDT,2020-03-13,16:01:30,-0500,341678000,_donpaci,Henry Pacinoüá≥üá¨üá∫üá∏üí•,,@OvieO They have to force people in Africa to get the coronaü¶† by force by fire ü§¶üèΩ‚Äç‚ôÇÔ∏è,en,[],[],[],0,0,0,[],[],https://twitter.com/_DonPaci/status/1238570907511242759,False,,0,,chicago,,,,,,"[{'screen_name': 'OvieO', 'name': 'Ovie', 'id': '51961599'}]",,,,
1238569855143628800,1238569604596871179,2020-03-13 15:57:19 CDT,2020-03-13,15:57:19,-0500,97613792,trilliamclinton,BIG COAT FOLKS,,i heard they do laser vasectomies now so it doesnt hurt at all,en,[],[],[],3,0,0,[],[],https://twitter.com/TrilliamClinton/status/1238569855143628800,False,,0,,chicago,,,,,,[],,,,
1238562733349654529,1238562733349654529,2020-03-13 15:29:01 CDT,2020-03-13,15:29:01,-0500,35269747,sl1rb1r,Sloane,,Did y‚Äôall just hear @realDonaldTrump bully that reporter for mispronouncing Dr. Fauci‚Äôs name? Our president thinks it‚Äôs ok to bully people when they are bravely asking a question in front of millions of viewers. Shame,en,"[{'screen_name': 'realdonaldtrump', 'name': 'donald j. trump', 'id': '25073877'}]",[],[],0,0,1,[],[],https://twitter.com/SL1RB1R/status/1238562733349654529,False,,0,,chicago,,,,,,[],,,,
1238561494893297664,1238561494893297664,2020-03-13 15:24:06 CDT,2020-03-13,15:24:06,-0500,999859790,gingerlad19,Mitch Parker,,If Top Gun 2 gets delayed I riot.,en,[],[],[],1,1,5,[],[],https://twitter.com/gingerlad19/status/1238561494893297664,False,,0,,chicago,,,,,,[],,,,
1238559450954436610,1238559450954436610,2020-03-13 15:15:59 CDT,2020-03-13,15:15:59,-0500,945908980269961217,jocemendez0,Joce,,My uncle said ‚ÄúI‚Äôm driving to pick up the kids because they said they can‚Äôt mess up their shoes. They forget how to walk.‚Äù IM DEAD!!!,en,[],[],[],1,0,0,[],[],https://twitter.com/jocemendez0/status/1238559450954436610,False,,0,,chicago,,,,,,[],,,,
1238558589519835137,1236758985933537286,2020-03-13 15:12:33 CDT,2020-03-13,15:12:33,-0500,47362629,maryfiorito,Mary H. FioRito,,"@SeattleNorth @Suzwarto @_LaFlorConAmor @RepLipinski @Feminists4Life @Marie4Congress Um, sorry to point out the obvious, but ‚Äúthe government‚Äù doesn‚Äôt force women to get pregnant. Unborn human beings are, in most other contexts, protected by law. In most states, if you murder a pregnant woman, regardless of the baby‚Äôs gestational age, you‚Äôre charged for 2 deaths.",en,[],[],[],1,0,0,[],[],https://twitter.com/maryfiorito/status/1238558589519835137,False,,0,,chicago,,,,,,"[{'screen_name': 'SeattleNorth', 'name': 'NorthByNW', 'id': '4320501741'}, {'screen_name': 'Suzwarto', 'name': 'Susie Sunshine ‚òÆ‚òïüå¥üêïüá∫üá¶', 'id': '899068965569282050'}, {'screen_name': 'RepLipinski', 'name': 'Former Rep. Daniel Lipinski', 'id': '1009269193'}, {'screen_name': 'Feminists4Life', 'name': 'Feminists for Life', 'id': '308623653'}, {'screen_name': 'Marie4Congress', 'name': 'Marie Newman', 'id': '1270426374'}]",,,,
1238557917214912512,1238557917214912512,2020-03-13 15:09:53 CDT,2020-03-13,15:09:53,-0500,993960593169281024,voyconmaria1,voyconma‚ú®,,-unsupportive family üëã  - exes üëã - entertaining dead ass relationships üëã,en,[],[],[],0,0,2,[],[],https://twitter.com/voyconmaria1/status/1238557917214912512,False,,0,,chicago,,,,,,[],,,,
1238557101858926592,1238557101858926592,2020-03-13 15:06:39 CDT,2020-03-13,15:06:39,-0500,26174781,terry_mfn_roxx,Terryroxx,,James harden made a crazy 3 and I could see Loso wanted to punch me in the face about it.,en,[],[],[],0,0,0,[],[],https://twitter.com/Terry_mfn_Roxx/status/1238557101858926592,False,,0,,chicago,,,,,,[],,,,
1238554053413613569,1237463069971951624,2020-03-13 14:54:32 CDT,2020-03-13,14:54:32,-0500,18793108,ballydolphin,C. Shelly ü¶≠,,"After threatening to sue me for slander (lol) twice, Mr Gindi and I spoke for 40min on the phone and he gave his whole context for the video. He truly considers himself the victim in all this. Also insists he loves animals, lost a lot of money, and had no idea Navarro was juicing",en,[],[],[],7,2,11,[],[],https://twitter.com/ballydolphin/status/1238554053413613569,False,,0,,chicago,,,,,,[],,,,
1238552281093636097,1238498840593997824,2020-03-13 14:47:29 CDT,2020-03-13,14:47:29,-0500,90963373,arneparrott,Arne Parrott,,"@g_the_riot I have one rose that I will mysteriously launch in the most dramatic moment possible, but then I'll have to kind of awkwardly shuffle over to it and pick it up",en,[],[],[],0,0,1,[],[],https://twitter.com/ArneParrott/status/1238552281093636097,False,,0,,chicago,,,,,,"[{'screen_name': 'g_the_riot', 'name': 'gee wrecks', 'id': '4709607530'}]",,,,
1238551594989498368,1238551594989498368,2020-03-13 14:44:46 CDT,2020-03-13,14:44:46,-0500,36787449,mike100s,I only got like $8,,Hold up y'all didn't know that the dead sea scrolls are fake? I've known that since forever lol,en,[],[],[],0,0,1,[],[],https://twitter.com/mike100s/status/1238551594989498368,False,,0,,chicago,,,,,,[],,,,
1238551586466598914,1238551586466598914,2020-03-13 14:44:44 CDT,2020-03-13,14:44:44,-0500,1055179017664499713,johncalandrino1,Johncalandrino,,Mr45 declared national emergency latenvery late the knew about this at jan after new yr dismt do jacknshit about then by force he did it today ..new yrk on its own ...other states ...maybe help some but they need miliions not thpusands..!!!,en,[],[],[],0,0,0,[],[],https://twitter.com/Johncalandrino1/status/1238551586466598914,False,,0,,chicago,,,,,,[],,,,
1238551284166377473,1238551284166377473,2020-03-13 14:43:31 CDT,2020-03-13,14:43:31,-0500,1261155084,jazelner,J,,"@HurtEverybody @SupaBwe @chicagoqari @MulattoBeats we hit 2,047 likes on insta? Need some new Hurt while all of us are pretty much out of school",en,"[{'screen_name': 'supabwe', 'name': '‚ú®freddy got magic‚ú®', 'id': '455618148'}, {'screen_name': 'chicagoqari', 'name': 'qari ashan kush paul', 'id': '283282734'}, {'screen_name': 'mulattobeats', 'name': 'follow @producedbylotto', 'id': '1350993092887908355'}]",[],[],0,0,1,[],[],https://twitter.com/Jazelner/status/1238551284166377473,False,,0,,chicago,,,,,,[],,,,
1238550533516001280,1238549838612123650,2020-03-13 14:40:33 CDT,2020-03-13,14:40:33,-0500,27262716,thegayredneck69,pfizer i barely know her,,@hjerkinson what about all the animals for 1M dead people going INTO shelters or the street,en,[],[],[],1,0,0,[],[],https://twitter.com/thegayredneck69/status/1238550533516001280,False,,0,,chicago,,,,,,"[{'screen_name': 'hjerkinson', 'name': 'hannah', 'id': '85679668'}]",,,,
1238548069333045250,1238548069333045250,2020-03-13 14:30:45 CDT,2020-03-13,14:30:45,-0500,144731337,camtheking,Cam ‚ú∂ ‚ú∂ ‚ú∂ ‚ú∂ üá∫üá∏,,I need an idea for a ‚Äútreat yoself‚Äù purchase since my social life is about to be dead for the next few months.,en,[],[],[],1,0,3,[],[],https://twitter.com/CamTheKing/status/1238548069333045250,False,,0,,chicago,,,,,,[],,,,
1238546142553690112,1238546142553690112,2020-03-13 14:23:06 CDT,2020-03-13,14:23:06,-0500,161774048,olia2424,Bot Patrol,,Definitely 1000+ people in the grocery store. That is technically illegal as of right now. Can we maybe kick some people out of the checkout line @JBPritzker,en,"[{'screen_name': 'jbpritzker', 'name': 'jb pritzker', 'id': '45550693'}]",[],[],0,0,1,[],[],https://twitter.com/olia2424/status/1238546142553690112,False,,0,,chicago,,,,,,[],,,,
1238543221636071424,1237894501848346624,2020-03-13 14:11:29 CDT,2020-03-13,14:11:29,-0500,251222062,verncummins,PlayUpPompey,,@3dirtyboyz @SportsCenter @espnW I love all the butt hurt ladies who think beating a Thai team 13nil with a 4ft goalkeeper is a great standard of competition. The US is a very good team in a pool dire quality. They would not beat an prem league academy team. Comparisons are pointless so don‚Äôt make em,en,[],[],[],0,0,5,[],[],https://twitter.com/VernCummins/status/1238543221636071424,False,,0,,chicago,,,,,,"[{'screen_name': '3dirtyboyz', 'name': 'B-bop', 'id': '830082186636169216'}, {'screen_name': 'SportsCenter', 'name': 'SportsCenter', 'id': '26257166'}, {'screen_name': 'espnW', 'name': 'espnW', 'id': '57333521'}]",,,,
1238538563916107780,1238538563916107780,2020-03-13 13:52:59 CDT,2020-03-13,13:52:59,-0500,251914871,guard_uno,üë∫,,"The gyms so dead today, even the receptionist didn‚Äôt wear makeup.",en,[],[],[],0,0,3,[],[],https://twitter.com/guard_uno/status/1238538563916107780,False,,0,,chicago,,,,,,[],,,,
1238531797090275328,1238521585134260229,2020-03-13 13:26:05 CDT,2020-03-13,13:26:05,-0500,36787449,mike100s,I only got like $8,,@VicLloyd @KingRello Hear me out  B.I.G. greatest dead rapper  Jigga greatest dead or alive   Get it,en,[],[],[],0,0,4,[],[],https://twitter.com/mike100s/status/1238531797090275328,False,,0,,chicago,,,,,,"[{'screen_name': 'VicLloyd', 'name': 'Vic LloydüíØ', 'id': '20010782'}, {'screen_name': 'KingRello', 'name': 'rello üêÖ üë®üèæ\u200düé®', 'id': '20010699'}]",,,,
1238529163990052866,1238517603888279552,2020-03-13 13:15:38 CDT,2020-03-13,13:15:38,-0500,918941471742545920,bbkobey,politburito,,"@bugsymegatron @cit_uprising One of those old white men is Jewish, erased as it may be in media for some reason, and he can still speak in coherent sentences. I haven‚Äôt heard Biden sound mentally okay in more than a year, it‚Äôs practically elder abuse to run him vs trump",en,[],[],[],0,0,1,[],[],https://twitter.com/bbkobey/status/1238529163990052866,False,,0,,chicago,,,,,,"[{'screen_name': 'bugsymegatron', 'name': 'Bugsy Megatron üåäüåäüåä', 'id': '945208148'}, {'screen_name': 'cit_uprising', 'name': 'citizen uprising', 'id': '705521746280128514'}]",,,,
1238528493937360897,1238528493937360897,2020-03-13 13:12:58 CDT,2020-03-13,13:12:58,-0500,2677774756,glensonggg,Glen,,If I get the corona virus imma buy a $15 flight to D.C. and lay my dead ass in front of the White House,en,[],[],[],1,1,2,[],[],https://twitter.com/glensonggg/status/1238528493937360897,False,,0,,chicago,,,,,,[],,,,
1238528145126494208,1238528145126494208,2020-03-13 13:11:35 CDT,2020-03-13,13:11:35,-0500,799605042,brownmambaebf,Danish Mukhi,,Even everyone‚Äôs death will be MADE IN CHINA. Smh,en,[],[],[],0,0,2,[],[],https://twitter.com/BrownMambaebf/status/1238528145126494208,False,,0,,chicago,,,,,,[],,,,
1238525721074688000,1238520032960884736,2020-03-13 13:01:57 CDT,2020-03-13,13:01:57,-0500,63143400,tonyfromcollege,rutgered,,@FlyLikeASiegell Hahahahaha damn bro didn‚Äôt see yours. Feminism appears to be much more deadly than corona banger tho,en,[],[],[],0,0,2,[],[],https://twitter.com/TonyFromCollege/status/1238525721074688000,False,,0,,chicago,,,,,,"[{'screen_name': 'FlyLikeASiegell', 'name': 'JŒûSSŒû SIŒûGŒûL', 'id': '159586524'}]",,,,
1238520309130633219,1238516286130446337,2020-03-13 12:40:26 CDT,2020-03-13,12:40:26,-0500,29551460,eliascepeda,Elias Cepeda,,@RGarcia_Sports I hear that. Good luck w all of them later in the year! I‚Äôve been rehabilitating an injury so more drilling than rolling but it‚Äôs getting better. One of my fighters just had his next one cancelled because of the pandemic. That hurt. It was 1.5 weeks away and he‚Äôd put in 10wks,en,[],[],[],1,0,1,[],[],https://twitter.com/EliasCepeda/status/1238520309130633219,False,,0,,chicago,,,,,,"[{'screen_name': 'RGarcia_Sports', 'name': 'Raphael Garcia', 'id': '137911730'}]",,,,
1238518416501280768,1238518416501280768,2020-03-13 12:32:55 CDT,2020-03-13,12:32:55,-0500,983737996355792896,thismiss817,Siana M.,,No offense to any of my ladies who prefer longer than average nails... how sanitary are those long ass nails? I know even short ones store dirt n germs if you don‚Äôt wash your hands properly.. Is it hard to clean your vagina? How do you do it?#igotquestions #curiousmindswanaknow,en,[],[],[],0,0,0,"['igotquestions', 'curiousmindswanaknow']",[],https://twitter.com/thismiss817/status/1238518416501280768,False,,0,,chicago,,,,,,[],,,,
1238515849968959488,1238515849968959488,2020-03-13 12:22:43 CDT,2020-03-13,12:22:43,-0500,2884411525,kid_malick95,Malik Stuckey.,,Dead. üòÇüòÇ,en,[],[],[],0,0,1,[],[],https://twitter.com/Kid_Malick95/status/1238515849968959488,False,https://twitter.com/zekips/status/1238347635569725440,0,,chicago,,,,,,[],,,,
1238515136245235712,1238299326771646465,2020-03-13 12:19:53 CDT,2020-03-13,12:19:53,-0500,71355762,wphsu,Will Hsu Ë®±ÊÅ©ÂÅâ (PanaxQ),,@OhDagEmily Oil war between Saudi Arabia and Russia. Will hurt US energy producers.,en,[],[],[],0,0,1,[],[],https://twitter.com/wphsu/status/1238515136245235712,False,,0,,chicago,,,,,,"[{'screen_name': 'OhDagEmily', 'name': 'emily', 'id': '54084790'}]",,,,
1238513983751098374,1238509360378187784,2020-03-13 12:15:18 CDT,2020-03-13,12:15:18,-0500,231263079,jwilli_official,JWILLI,,@LieutenantDan32 Bro it‚Äôs cuz they‚Äôre all dead,en,[],[],[],0,0,1,[],[],https://twitter.com/jwilli_official/status/1238513983751098374,False,,0,,chicago,,,,,,[],,,,
1238510715461402630,1238510715461402630,2020-03-13 12:02:19 CDT,2020-03-13,12:02:19,-0500,1193743149514051585,linosubway_,does jihyo miss me? bc i do,,Since this is my first comeback I need your help!! I‚Äôm already doing the following:  üß© streaming Kick It MV + show performances on YouTube üß© streaming Kick It on Spotify  üß©voting for Kick it on Idol Champ (to the best of my knowledge)   What else can I do to help my boys!?  https://t.co/5bg0RyV9nE,en,[],[],"['https://pbs.twimg.com/media/ETAS7iTXYAMHIo1.jpg', 'https://pbs.twimg.com/media/ETAS7iZXYAIHSmz.jpg']",0,0,4,[],[],https://twitter.com/linosubway_/status/1238510715461402630,False,,1,https://pbs.twimg.com/media/ETAS7iTXYAMHIo1.jpg,chicago,,,,,,[],,,,
1238508513015496706,1238508513015496706,2020-03-13 11:53:34 CDT,2020-03-13,11:53:34,-0500,316698745,sonyaoldssom,Sonya Olds Som (she/her/hers),,Many thanks to @msjdorg and @koricarew for the opportunity to have a web-based conversation this morning about harnessing your power to kick off the #MsJD virtual conference! #WhenWomenLead #SelfiesWithSonya  https://t.co/XPJ6G1NRUj,en,"[{'screen_name': 'msjdorg', 'name': 'ms. jd', 'id': '40784197'}, {'screen_name': 'koricarew', 'name': 'kori carew', 'id': '196612849'}]",[],"['https://pbs.twimg.com/media/ETAQ7SgWsAAIdAb.jpg', 'https://pbs.twimg.com/media/ETAQ7ScX0AAm9wX.jpg', 'https://pbs.twimg.com/media/ETAQ7VxWAAABPB0.jpg']",0,3,6,"['msjd', 'whenwomenlead', 'selfieswithsonya']",[],https://twitter.com/SonyaOldsSom/status/1238508513015496706,False,https://twitter.com/msjdorg/status/1238451067467321344,1,https://pbs.twimg.com/media/ETAQ7SgWsAAIdAb.jpg,chicago,,,,,,[],,,,
1238505957099016193,1238498945602654209,2020-03-13 11:43:25 CDT,2020-03-13,11:43:25,-0500,15248360,delriach,Isaac Torres üáµüá∑,,@Kenny_Riot @camsteh @Mach_Dent @sacaitlin I remember that :D,en,[],[],[],0,0,1,[],[],https://twitter.com/Delriach/status/1238505957099016193,False,,0,,chicago,,,,,,"[{'screen_name': 'Kenny_Riot', 'name': 'Clothing is a Spectrum: The Autumn Edition', 'id': '1272044509'}, {'screen_name': 'camsteh', 'name': 'cams', 'id': '2530336184'}, {'screen_name': 'Mach_Dent', 'name': 'Mach Dent | Emissary of Hell', 'id': '101320565'}, {'screen_name': 'sacaitlin', 'name': '(Íí™‚ñøÍí™) everything is terrible', 'id': '131686901'}]",,,,
